p cnf 430 1488
-191 -50 0
-191 -83 0
-191 -8 0
-191 19 0
-191 41 0
191 50 83 8 -19 -41 0
-192 -116 0
-192 147 0
-192 188 0
-192 -144 0
-192 -173 0
192 116 -147 -188 144 173 0
-193 -17 0
-193 -118 0
-193 36 0
-193 146 0
-193 -106 0
193 17 118 -36 -146 106 0
-194 153 0
-194 -68 0
-194 -83 0
-194 -119 0
-194 -31 0
194 -153 68 83 119 31 0
-195 -94 0
-195 -11 0
-195 -182 0
-195 136 0
-195 -100 0
195 94 11 182 -136 100 0
191 192 193 194 195 0
-196 95 0
-196 166 0
-196 80 0
-196 -8 0
-196 -89 0
196 -95 -166 -80 8 89 0
-197 135 0
-197 -56 0
-197 -186 0
-197 42 0
-197 47 0
197 -135 56 186 -42 -47 0
-198 -143 0
-198 136 0
-198 71 0
-198 90 0
-198 -183 0
198 143 -136 -71 -90 183 0
-199 -59 0
-199 -92 0
-199 52 0
-199 122 0
-199 175 0
199 59 92 -52 -122 -175 0
-200 -44 0
-200 120 0
-200 159 0
-200 -158 0
-200 163 0
200 44 -120 -159 158 -163 0
196 197 198 199 200 0
-201 -51 0
-201 140 0
-201 -84 0
-201 -129 0
-201 -72 0
201 51 -140 84 129 72 0
-202 -177 0
-202 -110 0
-202 171 0
-202 -15 0
-202 -46 0
202 177 110 -171 15 46 0
-203 87 0
-203 43 0
-203 107 0
-203 28 0
-203 94 0
203 -87 -43 -107 -28 -94 0
-204 -103 0
-204 -125 0
-204 109 0
-204 -95 0
-204 -37 0
204 103 125 -109 95 37 0
-205 -172 0
-205 23 0
-205 -147 0
-205 -133 0
-205 184 0
205 172 -23 147 133 -184 0
201 202 203 204 205 0
-206 23 0
-206 -51 0
-206 -97 0
-206 87 0
-206 -160 0
206 -23 51 97 -87 160 0
-207 -134 0
-207 -163 0
-207 -20 0
-207 -9 0
-207 -170 0
207 134 163 20 9 170 0
-208 -80 0
-208 -48 0
-208 -21 0
-208 58 0
-208 -164 0
208 80 48 21 -58 164 0
-209 -11 0
-209 141 0
-209 -77 0
-209 -17 0
-209 -171 0
209 11 -141 77 17 171 0
-210 -134 0
-210 -115 0
-210 -182 0
-210 160 0
-210 103 0
210 134 115 182 -160 -103 0
206 207 208 209 210 0
-211 60 0
-211 -11 0
-211 164 0
-211 -102 0
-211 181 0
211 -60 11 -164 102 -181 0
-212 93 0
-212 -63 0
-212 33 0
-212 133 0
-212 -13 0
212 -93 63 -33 -133 13 0
-213 -121 0
-213 -167 0
-213 92 0
-213 -184 0
-213 -33 0
213 121 167 -92 184 33 0
-214 104 0
-214 -54 0
-214 -150 0
-214 -29 0
-214 -116 0
214 -104 54 150 29 116 0
-215 50 0
-215 -2 0
-215 -141 0
-215 -188 0
-215 -112 0
215 -50 2 141 188 112 0
211 212 213 214 215 0
-216 -139 0
-216 -65 0
-216 18 0
-216 153 0
-216 -128 0
216 139 65 -18 -153 128 0
-217 172 0
-217 71 0
-217 94 0
-217 -145 0
-217 14 0
217 -172 -71 -94 145 -14 0
-218 -104 0
-218 -77 0
-218 44 0
-218 163 0
-218 -159 0
218 104 77 -44 -163 159 0
-219 89 0
-219 -113 0
-219 112 0
-219 -169 0
-219 -152 0
219 -89 113 -112 169 152 0
-220 112 0
-220 75 0
-220 127 0
-220 -129 0
-220 -98 0
220 -112 -75 -127 129 98 0
216 217 218 219 220 0
-221 56 0
-221 -181 0
-221 -150 0
-221 97 0
-221 64 0
221 -56 181 150 -97 -64 0
-222 58 0
-222 52 0
-222 83 0
-222 -142 0
-222 -166 0
222 -58 -52 -83 142 166 0
-223 -182 0
-223 100 0
-223 185 0
-223 -151 0
-223 -153 0
223 182 -100 -185 151 153 0
-224 138 0
-224 -99 0
-224 -34 0
-224 -132 0
-224 -155 0
224 -138 99 34 132 155 0
-225 28 0
-225 -170 0
-225 -105 0
-225 -23 0
-225 -94 0
225 -28 170 105 23 94 0
221 222 223 224 225 0
-226 156 0
-226 -165 0
-226 108 0
-226 -68 0
-226 -24 0
226 -156 165 -108 68 24 0
-227 151 0
-227 -133 0
-227 -50 0
-227 7 0
-227 82 0
227 -151 133 50 -7 -82 0
-228 6 0
-228 -46 0
-228 21 0
-228 102 0
-228 85 0
228 -6 46 -21 -102 -85 0
-229 2 0
-229 -78 0
-229 -145 0
-229 -183 0
-229 8 0
229 -2 78 145 183 -8 0
-230 -76 0
-230 -173 0
-230 165 0
-230 -48 0
-230 -38 0
230 76 173 -165 48 38 0
226 227 228 229 230 0
-231 40 0
-231 -6 0
-231 66 0
-231 -158 0
-231 -49 0
231 -40 6 -66 158 49 0
-232 48 0
-232 47 0
-232 132 0
-232 96 0
-232 -90 0
232 -48 -47 -132 -96 90 0
-233 -87 0
-233 11 0
-233 -173 0
-233 -2 0
-233 -145 0
233 87 -11 173 2 145 0
-234 86 0
-234 -20 0
-234 -161 0
-234 -87 0
-234 -16 0
234 -86 20 161 87 16 0
-235 59 0
-235 141 0
-235 158 0
-235 47 0
-235 186 0
235 -59 -141 -158 -47 -186 0
231 232 233 234 235 0
-236 13 0
-236 106 0
-236 14 0
-236 39 0
-236 -117 0
236 -13 -106 -14 -39 117 0
-237 -178 0
-237 -28 0
-237 -167 0
-237 -123 0
-237 2 0
237 178 28 167 123 -2 0
-238 60 0
-238 -83 0
-238 84 0
-238 -121 0
-238 -16 0
238 -60 83 -84 121 16 0
-239 72 0
-239 -129 0
-239 10 0
-239 -132 0
-239 60 0
239 -72 129 -10 132 -60 0
-240 33 0
-240 84 0
-240 72 0
-240 155 0
-240 148 0
240 -33 -84 -72 -155 -148 0
236 237 238 239 240 0
-241 127 0
-241 66 0
-241 -7 0
-241 -68 0
-241 -30 0
241 -127 -66 7 68 30 0
-242 77 0
-242 -88 0
-242 -160 0
-242 39 0
-242 154 0
242 -77 88 160 -39 -154 0
-243 -81 0
-243 -8 0
-243 -25 0
-243 -64 0
-243 185 0
243 81 8 25 64 -185 0
-244 7 0
-244 -90 0
-244 -135 0
-244 -91 0
-244 -76 0
244 -7 90 135 91 76 0
-245 -152 0
-245 130 0
-245 -100 0
-245 -44 0
-245 -71 0
245 152 -130 100 44 71 0
241 242 243 244 245 0
-246 -122 0
-246 17 0
-246 6 0
-246 170 0
-246 -133 0
246 122 -17 -6 -170 133 0
-247 180 0
-247 -92 0
-247 76 0
-247 -32 0
-247 6 0
247 -180 92 -76 32 -6 0
-248 43 0
-248 -135 0
-248 143 0
-248 -70 0
-248 170 0
248 -43 135 -143 70 -170 0
-249 -47 0
-249 -126 0
-249 -65 0
-249 -61 0
-249 37 0
249 47 126 65 61 -37 0
-250 183 0
-250 -110 0
-250 159 0
-250 -29 0
-250 127 0
250 -183 110 -159 29 -127 0
246 247 248 249 250 0
-251 41 0
-251 -79 0
-251 170 0
-251 107 0
-251 -70 0
251 -41 79 -170 -107 70 0
-252 116 0
-252 133 0
-252 136 0
-252 131 0
-252 -94 0
252 -116 -133 -136 -131 94 0
-253 10 0
-253 -72 0
-253 33 0
-253 101 0
-253 -81 0
253 -10 72 -33 -101 81 0
-254 41 0
-254 -89 0
-254 -187 0
-254 79 0
-254 -4 0
254 -41 89 187 -79 4 0
-255 -160 0
-255 -104 0
-255 153 0
-255 10 0
-255 -71 0
255 160 104 -153 -10 71 0
251 252 253 254 255 0
-256 -28 0
-256 -102 0
-256 35 0
-256 2 0
-256 -6 0
256 28 102 -35 -2 6 0
-257 52 0
-257 96 0
-257 -85 0
-257 146 0
-257 -95 0
257 -52 -96 85 -146 95 0
-258 -138 0
-258 -151 0
-258 -154 0
-258 -92 0
-258 -135 0
258 138 151 154 92 135 0
-259 -156 0
-259 -56 0
-259 -90 0
-259 140 0
-259 40 0
259 156 56 90 -140 -40 0
-260 36 0
-260 -74 0
-260 40 0
-260 153 0
-260 125 0
260 -36 74 -40 -153 -125 0
256 257 258 259 260 0
-261 67 0
-261 17 0
-261 119 0
-261 -101 0
-261 164 0
261 -67 -17 -119 101 -164 0
-262 34 0
-262 -54 0
-262 90 0
-262 103 0
-262 133 0
262 -34 54 -90 -103 -133 0
-263 123 0
-263 184 0
-263 -102 0
-263 34 0
-263 -69 0
263 -123 -184 102 -34 69 0
-264 -93 0
-264 -160 0
-264 -23 0
-264 150 0
-264 104 0
264 93 160 23 -150 -104 0
-265 84 0
-265 111 0
-265 69 0
-265 -6 0
-265 103 0
265 -84 -111 -69 6 -103 0
261 262 263 264 265 0
-266 56 0
-266 136 0
-266 -133 0
-266 -126 0
-266 -78 0
266 -56 -136 133 126 78 0
-267 -21 0
-267 -62 0
-267 35 0
-267 171 0
-267 -10 0
267 21 62 -35 -171 10 0
-268 165 0
-268 -114 0
-268 -134 0
-268 -177 0
-268 136 0
268 -165 114 134 177 -136 0
-269 -89 0
-269 -12 0
-269 -185 0
-269 95 0
-269 52 0
269 89 12 185 -95 -52 0
-270 114 0
-270 51 0
-270 -180 0
-270 -107 0
-270 167 0
270 -114 -51 180 107 -167 0
266 267 268 269 270 0
-271 28 0
-271 104 0
-271 135 0
-271 -16 0
-271 -56 0
271 -28 -104 -135 16 56 0
-272 -100 0
-272 74 0
-272 49 0
-272 119 0
-272 -7 0
272 100 -74 -49 -119 7 0
-273 29 0
-273 -91 0
-273 31 0
-273 84 0
-273 93 0
273 -29 91 -31 -84 -93 0
-274 -25 0
-274 -166 0
-274 -50 0
-274 64 0
-274 -65 0
274 25 166 50 -64 65 0
-275 172 0
-275 -62 0
-275 -79 0
-275 -63 0
-275 -64 0
275 -172 62 79 63 64 0
271 272 273 274 275 0
-276 -53 0
-276 187 0
-276 54 0
-276 97 0
-276 157 0
276 53 -187 -54 -97 -157 0
-277 128 0
-277 18 0
-277 127 0
-277 -52 0
-277 170 0
277 -128 -18 -127 52 -170 0
-278 114 0
-278 157 0
-278 -31 0
-278 124 0
-278 -1 0
278 -114 -157 31 -124 1 0
-279 169 0
-279 48 0
-279 88 0
-279 -49 0
-279 38 0
279 -169 -48 -88 49 -38 0
-280 168 0
-280 -98 0
-280 -152 0
-280 -121 0
-280 20 0
280 -168 98 152 121 -20 0
276 277 278 279 280 0
-281 -80 0
-281 115 0
-281 114 0
-281 -72 0
-281 21 0
281 80 -115 -114 72 -21 0
-282 70 0
-282 -8 0
-282 -85 0
-282 -141 0
-282 -34 0
282 -70 8 85 141 34 0
-283 8 0
-283 -19 0
-283 46 0
-283 -179 0
-283 85 0
283 -8 19 -46 179 -85 0
-284 117 0
-284 67 0
-284 -70 0
-284 -10 0
-284 -68 0
284 -117 -67 70 10 68 0
-285 81 0
-285 34 0
-285 -72 0
-285 10 0
-285 -58 0
285 -81 -34 72 -10 58 0
281 282 283 284 285 0
-286 -58 0
-286 122 0
-286 118 0
-286 104 0
-286 116 0
286 58 -122 -118 -104 -116 0
-287 -49 0
-287 153 0
-287 -146 0
-287 124 0
-287 173 0
287 49 -153 146 -124 -173 0
-288 25 0
-288 79 0
-288 -105 0
-288 -162 0
-288 50 0
288 -25 -79 105 162 -50 0
-289 -148 0
-289 85 0
-289 -28 0
-289 -90 0
-289 -181 0
289 148 -85 28 90 181 0
-290 -46 0
-290 3 0
-290 -89 0
-290 158 0
-290 -68 0
290 46 -3 89 -158 68 0
286 287 288 289 290 0
-291 -164 0
-291 -37 0
-291 -137 0
-291 98 0
-291 126 0
291 164 37 137 -98 -126 0
-292 137 0
-292 -23 0
-292 14 0
-292 -25 0
-292 -154 0
292 -137 23 -14 25 154 0
-293 31 0
-293 -145 0
-293 147 0
-293 116 0
-293 108 0
293 -31 145 -147 -116 -108 0
-294 66 0
-294 173 0
-294 -91 0
-294 37 0
-294 -65 0
294 -66 -173 91 -37 65 0
-295 90 0
-295 -61 0
-295 -52 0
-295 -163 0
-295 59 0
295 -90 61 52 163 -59 0
291 292 293 294 295 0
-296 -132 0
-296 13 0
-296 -181 0
-296 162 0
-296 -40 0
296 132 -13 181 -162 40 0
-297 173 0
-297 26 0
-297 40 0
-297 131 0
-297 116 0
297 -173 -26 -40 -131 -116 0
-298 41 0
-298 2 0
-298 -76 0
-298 -131 0
-298 46 0
298 -41 -2 76 131 -46 0
-299 85 0
-299 -50 0
-299 164 0
-299 95 0
-299 -15 0
299 -85 50 -164 -95 15 0
-300 44 0
-300 -94 0
-300 175 0
-300 55 0
-300 46 0
300 -44 94 -175 -55 -46 0
296 297 298 299 300 0
-301 154 0
-301 86 0
-301 81 0
-301 -6 0
-301 149 0
301 -154 -86 -81 6 -149 0
-302 -111 0
-302 90 0
-302 176 0
-302 167 0
-302 106 0
302 111 -90 -176 -167 -106 0
-303 165 0
-303 -69 0
-303 -96 0
-303 189 0
-303 -116 0
303 -165 69 96 -189 116 0
-304 5 0
-304 -152 0
-304 -59 0
-304 149 0
-304 97 0
304 -5 152 59 -149 -97 0
-305 -76 0
-305 36 0
-305 -73 0
-305 103 0
-305 -135 0
305 76 -36 73 -103 135 0
301 302 303 304 305 0
-306 -22 0
-306 122 0
-306 38 0
-306 65 0
-306 149 0
306 22 -122 -38 -65 -149 0
-307 176 0
-307 -30 0
-307 -189 0
-307 159 0
-307 -49 0
307 -176 30 189 -159 49 0
-308 61 0
-308 -174 0
-308 177 0
-308 -57 0
-308 -52 0
308 -61 174 -177 57 52 0
-309 114 0
-309 103 0
-309 -148 0
-309 -55 0
-309 -172 0
309 -114 -103 148 55 172 0
-310 -71 0
-310 135 0
-310 -23 0
-310 66 0
-310 140 0
310 71 -135 23 -66 -140 0
306 307 308 309 310 0
-311 -146 0
-311 88 0
-311 65 0
-311 -16 0
-311 99 0
311 146 -88 -65 16 -99 0
-312 84 0
-312 71 0
-312 -183 0
-312 -95 0
-312 -120 0
312 -84 -71 183 95 120 0
-313 120 0
-313 -38 0
-313 158 0
-313 -170 0
-313 -117 0
313 -120 38 -158 170 117 0
-314 86 0
-314 -77 0
-314 -165 0
-314 -1 0
-314 102 0
314 -86 77 165 1 -102 0
-315 -84 0
-315 170 0
-315 -108 0
-315 -145 0
-315 -45 0
315 84 -170 108 145 45 0
311 312 313 314 315 0
-316 169 0
-316 71 0
-316 -141 0
-316 162 0
-316 12 0
316 -169 -71 141 -162 -12 0
-317 -117 0
-317 147 0
-317 -102 0
-317 -41 0
-317 -178 0
317 117 -147 102 41 178 0
-318 -138 0
-318 -29 0
-318 100 0
-318 -18 0
-318 58 0
318 138 29 -100 18 -58 0
-319 -9 0
-319 115 0
-319 180 0
-319 36 0
-319 -106 0
319 9 -115 -180 -36 106 0
-320 -173 0
-320 120 0
-320 158 0
-320 14 0
-320 46 0
320 173 -120 -158 -14 -46 0
316 317 318 319 320 0
-321 49 0
-321 55 0
-321 85 0
-321 -60 0
-321 53 0
321 -49 -55 -85 60 -53 0
-322 101 0
-322 171 0
-322 124 0
-322 -27 0
-322 79 0
322 -101 -171 -124 27 -79 0
-323 -173 0
-323 -51 0
-323 -145 0
-323 7 0
-323 -85 0
323 173 51 145 -7 85 0
-324 -20 0
-324 -103 0
-324 -65 0
-324 100 0
-324 158 0
324 20 103 65 -100 -158 0
-325 -96 0
-325 164 0
-325 101 0
-325 152 0
-325 -18 0
325 96 -164 -101 -152 18 0
321 322 323 324 325 0
-326 88 0
-326 182 0
-326 169 0
-326 100 0
-326 79 0
326 -88 -182 -169 -100 -79 0
-327 187 0
-327 -49 0
-327 -150 0
-327 72 0
-327 -60 0
327 -187 49 150 -72 60 0
-328 -65 0
-328 -101 0
-328 161 0
-328 -36 0
-328 50 0
328 65 101 -161 36 -50 0
-329 -173 0
-329 -7 0
-329 -11 0
-329 -162 0
-329 102 0
329 173 7 11 162 -102 0
-330 156 0
-330 149 0
-330 86 0
-330 96 0
-330 -173 0
330 -156 -149 -86 -96 173 0
326 327 328 329 330 0
-331 47 0
-331 43 0
-331 157 0
-331 49 0
-331 -29 0
331 -47 -43 -157 -49 29 0
-332 -134 0
-332 126 0
-332 -145 0
-332 -22 0
-332 60 0
332 134 -126 145 22 -60 0
-333 170 0
-333 60 0
-333 -32 0
-333 22 0
-333 -172 0
333 -170 -60 32 -22 172 0
-334 128 0
-334 129 0
-334 32 0
-334 -92 0
-334 -160 0
334 -128 -129 -32 92 160 0
-335 -132 0
-335 -76 0
-335 113 0
-335 150 0
-335 -43 0
335 132 76 -113 -150 43 0
331 332 333 334 335 0
-336 -105 0
-336 24 0
-336 -26 0
-336 -5 0
-336 -119 0
336 105 -24 26 5 119 0
-337 184 0
-337 36 0
-337 -126 0
-337 -105 0
-337 154 0
337 -184 -36 126 105 -154 0
-338 9 0
-338 -170 0
-338 -59 0
-338 -52 0
-338 16 0
338 -9 170 59 52 -16 0
-339 31 0
-339 49 0
-339 -130 0
-339 -186 0
-339 82 0
339 -31 -49 130 186 -82 0
-340 20 0
-340 71 0
-340 60 0
-340 38 0
-340 -122 0
340 -20 -71 -60 -38 122 0
336 337 338 339 340 0
-341 -170 0
-341 7 0
-341 37 0
-341 -104 0
-341 -13 0
341 170 -7 -37 104 13 0
-342 -20 0
-342 -54 0
-342 -167 0
-342 -101 0
-342 126 0
342 20 54 167 101 -126 0
-343 141 0
-343 3 0
-343 48 0
-343 4 0
-343 -11 0
343 -141 -3 -48 -4 11 0
-344 -122 0
-344 -188 0
-344 119 0
-344 -53 0
-344 149 0
344 122 188 -119 53 -149 0
-345 -105 0
-345 70 0
-345 -128 0
-345 -99 0
-345 180 0
345 105 -70 128 99 -180 0
341 342 343 344 345 0
-346 12 0
-346 188 0
-346 -52 0
-346 18 0
-346 15 0
346 -12 -188 52 -18 -15 0
-347 160 0
-347 105 0
-347 77 0
-347 -159 0
-347 30 0
347 -160 -105 -77 159 -30 0
-348 -54 0
-348 -22 0
-348 170 0
-348 148 0
-348 -35 0
348 54 22 -170 -148 35 0
-349 -139 0
-349 8 0
-349 -75 0
-349 126 0
-349 88 0
349 139 -8 75 -126 -88 0
-350 24 0
-350 51 0
-350 180 0
-350 124 0
-350 7 0
350 -24 -51 -180 -124 -7 0
346 347 348 349 350 0
-351 15 0
-351 121 0
-351 66 0
-351 -48 0
-351 -157 0
351 -15 -121 -66 48 157 0
-352 67 0
-352 148 0
-352 49 0
-352 -129 0
-352 95 0
352 -67 -148 -49 129 -95 0
-353 -152 0
-353 -131 0
-353 -117 0
-353 77 0
-353 78 0
353 152 131 117 -77 -78 0
-354 -37 0
-354 117 0
-354 -31 0
-354 -162 0
-354 -45 0
354 37 -117 31 162 45 0
-355 22 0
-355 -15 0
-355 -116 0
-355 -157 0
-355 -127 0
355 -22 15 116 157 127 0
351 352 353 354 355 0
-356 -107 0
-356 -133 0
-356 -183 0
-356 4 0
-356 25 0
356 107 133 183 -4 -25 0
-357 -47 0
-357 -116 0
-357 -126 0
-357 83 0
-357 -50 0
357 47 116 126 -83 50 0
-358 128 0
-358 101 0
-358 183 0
-358 73 0
-358 152 0
358 -128 -101 -183 -73 -152 0
-359 67 0
-359 -132 0
-359 175 0
-359 33 0
-359 154 0
359 -67 132 -175 -33 -154 0
-360 29 0
-360 -31 0
-360 99 0
-360 -5 0
-360 84 0
360 -29 31 -99 5 -84 0
356 357 358 359 360 0
-361 -136 0
-361 -100 0
-361 -78 0
-361 126 0
-361 128 0
361 136 100 78 -126 -128 0
-362 -76 0
-362 74 0
-362 -170 0
-362 38 0
-362 -128 0
362 76 -74 170 -38 128 0
-363 -30 0
-363 -155 0
-363 110 0
-363 -156 0
-363 184 0
363 30 155 -110 156 -184 0
-364 -110 0
-364 16 0
-364 -150 0
-364 42 0
-364 -7 0
364 110 -16 150 -42 7 0
-365 -22 0
-365 -12 0
-365 30 0
-365 57 0
-365 -190 0
365 22 12 -30 -57 190 0
361 362 363 364 365 0
-366 -153 0
-366 -111 0
-366 -126 0
-366 -36 0
-366 -70 0
366 153 111 126 36 70 0
-367 16 0
-367 120 0
-367 46 0
-367 84 0
-367 -54 0
367 -16 -120 -46 -84 54 0
-368 -115 0
-368 110 0
-368 136 0
-368 71 0
-368 19 0
368 115 -110 -136 -71 -19 0
-369 -104 0
-369 -184 0
-369 -94 0
-369 62 0
-369 117 0
369 104 184 94 -62 -117 0
-370 97 0
-370 -142 0
-370 -88 0
-370 -161 0
-370 -79 0
370 -97 142 88 161 79 0
366 367 368 369 370 0
-371 -13 0
-371 125 0
-371 -117 0
-371 53 0
-371 -30 0
371 13 -125 117 -53 30 0
-372 125 0
-372 -6 0
-372 -103 0
-372 -139 0
-372 -70 0
372 -125 6 103 139 70 0
-373 162 0
-373 -112 0
-373 -26 0
-373 107 0
-373 -76 0
373 -162 112 26 -107 76 0
-374 16 0
-374 85 0
-374 84 0
-374 150 0
-374 -47 0
374 -16 -85 -84 -150 47 0
-375 107 0
-375 -149 0
-375 -69 0
-375 110 0
-375 -186 0
375 -107 149 69 -110 186 0
371 372 373 374 375 0
-376 6 0
-376 174 0
-376 -78 0
-376 183 0
-376 -81 0
376 -6 -174 78 -183 81 0
-377 9 0
-377 3 0
-377 8 0
-377 26 0
-377 -96 0
377 -9 -3 -8 -26 96 0
-378 85 0
-378 -157 0
-378 61 0
-378 187 0
-378 -165 0
378 -85 157 -61 -187 165 0
-379 -115 0
-379 -47 0
-379 141 0
-379 -157 0
-379 131 0
379 115 47 -141 157 -131 0
-380 73 0
-380 90 0
-380 -60 0
-380 -132 0
-380 -37 0
380 -73 -90 60 132 37 0
376 377 378 379 380 0
-381 98 0
-381 -97 0
-381 149 0
-381 137 0
-381 174 0
381 -98 97 -149 -137 -174 0
-382 -17 0
-382 -183 0
-382 -160 0
-382 177 0
-382 182 0
382 17 183 160 -177 -182 0
-383 39 0
-383 -173 0
-383 188 0
-383 -92 0
-383 -78 0
383 -39 173 -188 92 78 0
-384 28 0
-384 -151 0
-384 66 0
-384 -105 0
-384 97 0
384 -28 151 -66 105 -97 0
-385 -172 0
-385 149 0
-385 -49 0
-385 126 0
-385 111 0
385 172 -149 49 -126 -111 0
381 382 383 384 385 0
-386 -26 0
-386 162 0
-386 140 0
-386 -113 0
-386 127 0
386 26 -162 -140 113 -127 0
-387 141 0
-387 70 0
-387 -45 0
-387 189 0
-387 101 0
387 -141 -70 45 -189 -101 0
-388 83 0
-388 150 0
-388 -111 0
-388 -122 0
-388 -152 0
388 -83 -150 111 122 152 0
-389 119 0
-389 -53 0
-389 -27 0
-389 -134 0
-389 -15 0
389 -119 53 27 134 15 0
-390 -14 0
-390 -104 0
-390 -169 0
-390 -44 0
-390 166 0
390 14 104 169 44 -166 0
386 387 388 389 390 0
-391 112 0
-391 180 0
-391 42 0
-391 124 0
-391 -23 0
391 -112 -180 -42 -124 23 0
-392 102 0
-392 -109 0
-392 -126 0
-392 -147 0
-392 -34 0
392 -102 109 126 147 34 0
-393 -141 0
-393 -83 0
-393 140 0
-393 -163 0
-393 -78 0
393 141 83 -140 163 78 0
-394 76 0
-394 -69 0
-394 -64 0
-394 83 0
-394 173 0
394 -76 69 64 -83 -173 0
-395 58 0
-395 -110 0
-395 83 0
-395 170 0
-395 -21 0
395 -58 110 -83 -170 21 0
391 392 393 394 395 0
-396 147 0
-396 -19 0
-396 -123 0
-396 -189 0
-396 -116 0
396 -147 19 123 189 116 0
-397 114 0
-397 -59 0
-397 -16 0
-397 -185 0
-397 42 0
397 -114 59 16 185 -42 0
-398 -5 0
-398 -42 0
-398 -74 0
-398 -137 0
-398 -115 0
398 5 42 74 137 115 0
-399 142 0
-399 173 0
-399 77 0
-399 -1 0
-399 -92 0
399 -142 -173 -77 1 92 0
-400 25 0
-400 -60 0
-400 80 0
-400 86 0
-400 36 0
400 -25 60 -80 -86 -36 0
396 397 398 399 400 0
-401 -48 0
-401 -122 0
-401 -175 0
-401 -28 0
-401 -12 0
401 48 122 175 28 12 0
-402 -97 0
-402 -175 0
-402 -129 0
-402 146 0
-402 181 0
402 97 175 129 -146 -181 0
-403 171 0
-403 129 0
-403 -164 0
-403 -150 0
-403 -131 0
403 -171 -129 164 150 131 0
-404 -189 0
-404 148 0
-404 -154 0
-404 -136 0
-404 177 0
404 189 -148 154 136 -177 0
-405 -73 0
-405 182 0
-405 164 0
-405 8 0
-405 64 0
405 73 -182 -164 -8 -64 0
401 402 403 404 405 0
-406 -173 0
-406 -139 0
-406 -99 0
-406 34 0
-406 154 0
406 173 139 99 -34 -154 0
-407 139 0
-407 -21 0
-407 164 0
-407 -176 0
-407 -149 0
407 -139 21 -164 176 149 0
-408 14 0
-408 -23 0
-408 110 0
-408 128 0
-408 25 0
408 -14 23 -110 -128 -25 0
-409 -62 0
-409 -36 0
-409 -185 0
-409 128 0
-409 12 0
409 62 36 185 -128 -12 0
-410 183 0
-410 -93 0
-410 152 0
-410 -38 0
-410 50 0
410 -183 93 -152 38 -50 0
406 407 408 409 410 0
-411 60 0
-411 20 0
-411 -34 0
-411 -93 0
-411 -101 0
411 -60 -20 34 93 101 0
-412 -50 0
-412 146 0
-412 92 0
-412 -46 0
-412 -133 0
412 50 -146 -92 46 133 0
-413 10 0
-413 -13 0
-413 -11 0
-413 -128 0
-413 -90 0
413 -10 13 11 128 90 0
-414 155 0
-414 -78 0
-414 128 0
-414 93 0
-414 -121 0
414 -155 78 -128 -93 121 0
-415 49 0
-415 140 0
-415 -38 0
-415 -96 0
-415 6 0
415 -49 -140 38 96 -6 0
411 412 413 414 415 0
-416 152 0
-416 -34 0
-416 -168 0
-416 -70 0
-416 -47 0
416 -152 34 168 70 47 0
-417 -83 0
-417 -122 0
-417 33 0
-417 85 0
-417 10 0
417 83 122 -33 -85 -10 0
-418 71 0
-418 -26 0
-418 -73 0
-418 138 0
-418 113 0
418 -71 26 73 -138 -113 0
-419 47 0
-419 -79 0
-419 -65 0
-419 119 0
-419 103 0
419 -47 79 65 -119 -103 0
-420 90 0
-420 -57 0
-420 50 0
-420 -7 0
-420 64 0
420 -90 57 -50 7 -64 0
416 417 418 419 420 0
-421 -190 0
-421 -172 0
-421 76 0
-421 -147 0
-421 -104 0
421 190 172 -76 147 104 0
-422 149 0
-422 151 0
-422 -83 0
-422 -50 0
-422 -89 0
422 -149 -151 83 50 89 0
-423 -37 0
-423 -14 0
-423 -113 0
-423 -36 0
-423 118 0
423 37 14 113 36 -118 0
-424 -75 0
-424 -151 0
-424 -159 0
-424 -98 0
-424 -26 0
424 75 151 159 98 26 0
-425 -182 0
-425 -172 0
-425 -43 0
-425 -160 0
-425 -176 0
425 182 172 43 160 176 0
421 422 423 424 425 0
-426 -89 0
-426 -149 0
-426 -150 0
-426 -186 0
-426 181 0
426 89 149 150 186 -181 0
-427 160 0
-427 72 0
-427 93 0
-427 -145 0
-427 -134 0
427 -160 -72 -93 145 134 0
-428 -66 0
-428 137 0
-428 24 0
-428 -21 0
-428 -147 0
428 66 -137 -24 21 147 0
-429 152 0
-429 -54 0
-429 -86 0
-429 46 0
-429 -57 0
429 -152 54 86 -46 57 0
-430 170 0
-430 -55 0
-430 184 0
-430 120 0
-430 189 0
430 -170 55 -184 -120 -189 0
426 427 428 429 430 0
